db/data/25018146903198923711300661159391904595.z3.out
solvers/z3/run.sh: line 2: 133567 Killed                  z3 -smt2 $1
-------------------
78.658060818
